experiment/data/lkh-res/Vrp-Set-X-n115/Vrp-Set-X-n115-lkh/0.lkh1.vrp
NAME : 0
COMMENT : CVRP Instance
TYPE : CVRP
DIMENSION : 115
EDGE_WEIGHT_TYPE : EUC_2D
CAPACITY : 169
NODE_COORD_SECTION
1	50000	50000
2	86500	69300
3	63300	22000
4	17300	36100
5	8900	71400
6	35000	10200
7	30100	2400
8	83400	66300
9	84100	99700
10	39400	79000
11	27600	48800
12	77900	31200
13	93900	6600
14	59500	46200
15	94000	96400
16	45900	45900
17	43200	28000
18	37900	33800
19	12800	43900
20	40100	2200
21	6900	88700
22	49900	65700
23	63300	4600
24	71300	18200
25	80600	52500
26	54000	16900
27	69600	55900
28	57700	88800
29	29800	72500
30	41000	64400
31	51200	88900
32	75600	35200
33	40500	40700
34	85000	36500
35	73100	58800
36	9000	55300
37	69100	38300
38	92600	63100
39	95500	35100
40	99800	73600
41	92100	85400
42	53200	25700
43	23800	51300
44	97600	91200
45	56500	91200
46	89300	7400
47	59000	54800
48	9900	35500
49	29400	3900
50	5800	42900
51	47100	57300
52	52000	10900
53	48600	61100
54	40900	68200
55	29600	84300
56	97000	47900
57	71700	39000
58	15200	71100
59	93400	25500
60	25700	53900
61	27000	3100
62	82300	40900
63	20300	84900
64	77000	62700
65	63000	58100
66	78600	18600
67	38000	30000
68	97300	84700
69	98500	97500
70	73200	46500
71	69000	42800
72	91000	56800
73	72500	53900
74	18100	18600
75	81400	69400
76	70200	92700
77	94600	49200
78	98400	30500
79	38500	69600
80	4800	32300
81	94400	44000
82	81300	29300
83	49000	67600
84	72900	92300
85	71900	88300
86	67500	63700
87	16700	1400
88	9800	15900
89	47600	70900
90	40200	33900
91	91100	73400
92	59000	23000
93	12200	69800
94	15400	41800
95	16500	99800
96	21700	59900
97	76600	2100
98	92200	40700
99	83100	60700
100	7000	49400
101	22000	74000
102	1900	85500
103	75900	50700
104	81800	40900
105	50300	30400
106	59500	82700
107	25400	28200
108	20500	60700
109	33100	5700
110	11800	40400
111	57600	65800
112	55800	61100
113	62900	73200
114	89300	18200
115	43500	100000
DEMAND_SECTION
1	0
2	86
3	98
4	89
5	91
6	74
7	87
8	65
9	62
10	60
11	99
12	96
13	79
14	6
15	10
16	3
17	8
18	8
19	10
20	1
21	9
22	6
23	4
24	5
25	6
26	3
27	9
28	7
29	7
30	5
31	2
32	4
33	8
34	8
35	1
36	4
37	5
38	7
39	8
40	9
41	1
42	8
43	2
44	2
45	9
46	7
47	8
48	1
49	1
50	9
51	8
52	4
53	7
54	2
55	1
56	3
57	7
58	10
59	2
60	3
61	1
62	2
63	10
64	1
65	4
66	3
67	5
68	6
69	3
70	1
71	9
72	3
73	4
74	1
75	4
76	5
77	1
78	2
79	5
80	10
81	6
82	1
83	6
84	9
85	3
86	5
87	6
88	6
89	10
90	2
91	2
92	5
93	10
94	10
95	5
96	5
97	8
98	5
99	5
100	8
101	5
102	8
103	6
104	8
105	5
106	4
107	10
108	9
109	5
110	5
111	5
112	3
113	8
114	7
115	6
DEPOT_SECTION
1
-1
EOF
