experiment/data/lkh-res/Vrp-Set-X-n115/Vrp-Set-X-n115-lkh/0.lkh1.tour
NAME : 0.1275163.tour
COMMENT : Length = 1275163
COMMENT : Found by LKH-3 [Keld Helsgaun] Tue Apr  9 03:09:31 2024
TYPE : TOUR
DIMENSION : 124
TOUR_SECTION
1
17
6
7
118
29
101
63
95
21
102
5
93
58
108
96
120
112
111
113
85
76
84
9
15
69
44
41
68
40
91
38
99
35
27
47
116
51
30
54
79
10
55
115
31
45
28
106
89
83
22
53
119
70
104
62
34
82
12
32
57
71
14
117
73
103
25
72
77
56
81
98
39
78
59
114
13
46
97
23
24
66
37
123
11
122
86
75
2
8
64
65
121
60
43
36
100
50
80
48
110
19
94
4
33
16
124
105
42
92
3
26
52
20
109
49
61
87
88
74
107
67
18
90
-1
EOF
